unknown
(model
; cardinality of BoundSet is 3
(declare-sort BoundSet 0)
; rep: @uc_BoundSet_0
; rep: @uc_BoundSet_1
; rep: @uc_BoundSet_2
; cardinality of UnboundSet is 1
(declare-sort UnboundSet 0)
(declare-fun groundTerm_4 () UnboundSet)
(define-fun LookingOutTheWindow ((BOUND_VARIABLE_424 BoundSet) (BOUND_VARIABLE_425 BoundSet)) Bool true)
(define-fun LookingAt ((BOUND_VARIABLE_424 BoundSet) (BOUND_VARIABLE_425 BoundSet)) Bool true)
(define-fun LookOutWindow ((BOUND_VARIABLE_424 BoundSet) (BOUND_VARIABLE_425 BoundSet)) Bool false)
)
unsat
(error "Cannot get model unless immediately preceded by SAT/NOT_ENTAILED or UNKNOWN response.")
